c Problem generated from carry-save[n-bit] multiplication circuit
c by Paul Purdom and Amr Sabry
c
c Circuit for product = 3001 [True,False,True,True,True,False,True,True,True,False,False,True]
c Variables for output [msb,...,lsb]: [350,349,344,339,334,329,324,319,314,309,305,247,186,125,64,31,18]
c Variables for first input [msb,...,lsb]: [11,10,9,8,7,6,5,4,3,2,1]
c Variables for second input [msb,...,lsb]: [17,16,15,14,13,12]
c
c
p cnf 350 1349
1 12 -18 0
1 -12 -18 0
-1 12 -18 0
-1 -12 18 0
2 12 -19 0
2 -12 -19 0
-2 12 -19 0
-2 -12 19 0
3 12 -20 0
3 -12 -20 0
-3 12 -20 0
-3 -12 20 0
4 12 -21 0
4 -12 -21 0
-4 12 -21 0
-4 -12 21 0
5 12 -22 0
5 -12 -22 0
-5 12 -22 0
-5 -12 22 0
6 12 -23 0
6 -12 -23 0
-6 12 -23 0
-6 -12 23 0
7 12 -24 0
7 -12 -24 0
-7 12 -24 0
-7 -12 24 0
8 12 -25 0
8 -12 -25 0
-8 12 -25 0
-8 -12 25 0
9 12 -26 0
9 -12 -26 0
-9 12 -26 0
-9 -12 26 0
10 12 -27 0
10 -12 -27 0
-10 12 -27 0
-10 -12 27 0
11 12 -28 0
11 -12 -28 0
-11 12 -28 0
-11 -12 28 0
1 13 -29 0
1 -13 -29 0
-1 13 -29 0
-1 -13 29 0
19 29 -30 0
19 -29 -30 0
-19 29 -30 0
-19 -29 30 0
19 29 -31 0
19 -29 31 0
-19 29 31 0
-19 -29 -31 0
2 13 -32 0
2 -13 -32 0
-2 13 -32 0
-2 -13 32 0
20 32 -33 0
20 -32 -33 0
-20 32 -33 0
-20 -32 33 0
20 32 -34 0
20 -32 34 0
-20 32 34 0
-20 -32 -34 0
3 13 -35 0
3 -13 -35 0
-3 13 -35 0
-3 -13 35 0
21 35 -36 0
21 -35 -36 0
-21 35 -36 0
-21 -35 36 0
21 35 -37 0
21 -35 37 0
-21 35 37 0
-21 -35 -37 0
4 13 -38 0
4 -13 -38 0
-4 13 -38 0
-4 -13 38 0
22 38 -39 0
22 -38 -39 0
-22 38 -39 0
-22 -38 39 0
22 38 -40 0
22 -38 40 0
-22 38 40 0
-22 -38 -40 0
5 13 -41 0
5 -13 -41 0
-5 13 -41 0
-5 -13 41 0
23 41 -42 0
23 -41 -42 0
-23 41 -42 0
-23 -41 42 0
23 41 -43 0
23 -41 43 0
-23 41 43 0
-23 -41 -43 0
6 13 -44 0
6 -13 -44 0
-6 13 -44 0
-6 -13 44 0
24 44 -45 0
24 -44 -45 0
-24 44 -45 0
-24 -44 45 0
24 44 -46 0
24 -44 46 0
-24 44 46 0
-24 -44 -46 0
7 13 -47 0
7 -13 -47 0
-7 13 -47 0
-7 -13 47 0
25 47 -48 0
25 -47 -48 0
-25 47 -48 0
-25 -47 48 0
25 47 -49 0
25 -47 49 0
-25 47 49 0
-25 -47 -49 0
8 13 -50 0
8 -13 -50 0
-8 13 -50 0
-8 -13 50 0
26 50 -51 0
26 -50 -51 0
-26 50 -51 0
-26 -50 51 0
26 50 -52 0
26 -50 52 0
-26 50 52 0
-26 -50 -52 0
9 13 -53 0
9 -13 -53 0
-9 13 -53 0
-9 -13 53 0
27 53 -54 0
27 -53 -54 0
-27 53 -54 0
-27 -53 54 0
27 53 -55 0
27 -53 55 0
-27 53 55 0
-27 -53 -55 0
10 13 -56 0
10 -13 -56 0
-10 13 -56 0
-10 -13 56 0
28 56 -57 0
28 -56 -57 0
-28 56 -57 0
-28 -56 57 0
28 56 -58 0
28 -56 58 0
-28 56 58 0
-28 -56 -58 0
11 13 -59 0
11 -13 -59 0
-11 13 -59 0
-11 -13 59 0
1 14 -60 0
1 -14 -60 0
-1 14 -60 0
-1 -14 60 0
34 60 -61 0
34 -60 -61 0
-34 60 -61 0
-34 -60 61 0
34 60 -62 0
34 -60 62 0
-34 60 62 0
-34 -60 -62 0
30 62 -63 0
30 -62 -63 0
-30 62 -63 0
-30 -62 63 0
30 62 -64 0
30 -62 64 0
-30 62 64 0
-30 -62 -64 0
61 63 -65 0
61 -63 65 0
-61 63 65 0
-61 -63 -65 0
2 14 -66 0
2 -14 -66 0
-2 14 -66 0
-2 -14 66 0
37 66 -67 0
37 -66 -67 0
-37 66 -67 0
-37 -66 67 0
37 66 -68 0
37 -66 68 0
-37 66 68 0
-37 -66 -68 0
33 68 -69 0
33 -68 -69 0
-33 68 -69 0
-33 -68 69 0
33 68 -70 0
33 -68 70 0
-33 68 70 0
-33 -68 -70 0
67 69 -71 0
67 -69 71 0
-67 69 71 0
-67 -69 -71 0
3 14 -72 0
3 -14 -72 0
-3 14 -72 0
-3 -14 72 0
40 72 -73 0
40 -72 -73 0
-40 72 -73 0
-40 -72 73 0
40 72 -74 0
40 -72 74 0
-40 72 74 0
-40 -72 -74 0
36 74 -75 0
36 -74 -75 0
-36 74 -75 0
-36 -74 75 0
36 74 -76 0
36 -74 76 0
-36 74 76 0
-36 -74 -76 0
73 75 -77 0
73 -75 77 0
-73 75 77 0
-73 -75 -77 0
4 14 -78 0
4 -14 -78 0
-4 14 -78 0
-4 -14 78 0
43 78 -79 0
43 -78 -79 0
-43 78 -79 0
-43 -78 79 0
43 78 -80 0
43 -78 80 0
-43 78 80 0
-43 -78 -80 0
39 80 -81 0
39 -80 -81 0
-39 80 -81 0
-39 -80 81 0
39 80 -82 0
39 -80 82 0
-39 80 82 0
-39 -80 -82 0
79 81 -83 0
79 -81 83 0
-79 81 83 0
-79 -81 -83 0
5 14 -84 0
5 -14 -84 0
-5 14 -84 0
-5 -14 84 0
46 84 -85 0
46 -84 -85 0
-46 84 -85 0
-46 -84 85 0
46 84 -86 0
46 -84 86 0
-46 84 86 0
-46 -84 -86 0
42 86 -87 0
42 -86 -87 0
-42 86 -87 0
-42 -86 87 0
42 86 -88 0
42 -86 88 0
-42 86 88 0
-42 -86 -88 0
85 87 -89 0
85 -87 89 0
-85 87 89 0
-85 -87 -89 0
6 14 -90 0
6 -14 -90 0
-6 14 -90 0
-6 -14 90 0
49 90 -91 0
49 -90 -91 0
-49 90 -91 0
-49 -90 91 0
49 90 -92 0
49 -90 92 0
-49 90 92 0
-49 -90 -92 0
45 92 -93 0
45 -92 -93 0
-45 92 -93 0
-45 -92 93 0
45 92 -94 0
45 -92 94 0
-45 92 94 0
-45 -92 -94 0
91 93 -95 0
91 -93 95 0
-91 93 95 0
-91 -93 -95 0
7 14 -96 0
7 -14 -96 0
-7 14 -96 0
-7 -14 96 0
52 96 -97 0
52 -96 -97 0
-52 96 -97 0
-52 -96 97 0
52 96 -98 0
52 -96 98 0
-52 96 98 0
-52 -96 -98 0
48 98 -99 0
48 -98 -99 0
-48 98 -99 0
-48 -98 99 0
48 98 -100 0
48 -98 100 0
-48 98 100 0
-48 -98 -100 0
97 99 -101 0
97 -99 101 0
-97 99 101 0
-97 -99 -101 0
8 14 -102 0
8 -14 -102 0
-8 14 -102 0
-8 -14 102 0
55 102 -103 0
55 -102 -103 0
-55 102 -103 0
-55 -102 103 0
55 102 -104 0
55 -102 104 0
-55 102 104 0
-55 -102 -104 0
51 104 -105 0
51 -104 -105 0
-51 104 -105 0
-51 -104 105 0
51 104 -106 0
51 -104 106 0
-51 104 106 0
-51 -104 -106 0
103 105 -107 0
103 -105 107 0
-103 105 107 0
-103 -105 -107 0
9 14 -108 0
9 -14 -108 0
-9 14 -108 0
-9 -14 108 0
58 108 -109 0
58 -108 -109 0
-58 108 -109 0
-58 -108 109 0
58 108 -110 0
58 -108 110 0
-58 108 110 0
-58 -108 -110 0
54 110 -111 0
54 -110 -111 0
-54 110 -111 0
-54 -110 111 0
54 110 -112 0
54 -110 112 0
-54 110 112 0
-54 -110 -112 0
109 111 -113 0
109 -111 113 0
-109 111 113 0
-109 -111 -113 0
10 14 -114 0
10 -14 -114 0
-10 14 -114 0
-10 -14 114 0
59 114 -115 0
59 -114 -115 0
-59 114 -115 0
-59 -114 115 0
59 114 -116 0
59 -114 116 0
-59 114 116 0
-59 -114 -116 0
57 116 -117 0
57 -116 -117 0
-57 116 -117 0
-57 -116 117 0
57 116 -118 0
57 -116 118 0
-57 116 118 0
-57 -116 -118 0
115 117 -119 0
115 -117 119 0
-115 117 119 0
-115 -117 -119 0
11 14 -120 0
11 -14 -120 0
-11 14 -120 0
-11 -14 120 0
1 15 -121 0
1 -15 -121 0
-1 15 -121 0
-1 -15 121 0
70 121 -122 0
70 -121 -122 0
-70 121 -122 0
-70 -121 122 0
70 121 -123 0
70 -121 123 0
-70 121 123 0
-70 -121 -123 0
65 123 -124 0
65 -123 -124 0
-65 123 -124 0
-65 -123 124 0
65 123 -125 0
65 -123 125 0
-65 123 125 0
-65 -123 -125 0
122 124 -126 0
122 -124 126 0
-122 124 126 0
-122 -124 -126 0
2 15 -127 0
2 -15 -127 0
-2 15 -127 0
-2 -15 127 0
76 127 -128 0
76 -127 -128 0
-76 127 -128 0
-76 -127 128 0
76 127 -129 0
76 -127 129 0
-76 127 129 0
-76 -127 -129 0
71 129 -130 0
71 -129 -130 0
-71 129 -130 0
-71 -129 130 0
71 129 -131 0
71 -129 131 0
-71 129 131 0
-71 -129 -131 0
128 130 -132 0
128 -130 132 0
-128 130 132 0
-128 -130 -132 0
3 15 -133 0
3 -15 -133 0
-3 15 -133 0
-3 -15 133 0
82 133 -134 0
82 -133 -134 0
-82 133 -134 0
-82 -133 134 0
82 133 -135 0
82 -133 135 0
-82 133 135 0
-82 -133 -135 0
77 135 -136 0
77 -135 -136 0
-77 135 -136 0
-77 -135 136 0
77 135 -137 0
77 -135 137 0
-77 135 137 0
-77 -135 -137 0
134 136 -138 0
134 -136 138 0
-134 136 138 0
-134 -136 -138 0
4 15 -139 0
4 -15 -139 0
-4 15 -139 0
-4 -15 139 0
88 139 -140 0
88 -139 -140 0
-88 139 -140 0
-88 -139 140 0
88 139 -141 0
88 -139 141 0
-88 139 141 0
-88 -139 -141 0
83 141 -142 0
83 -141 -142 0
-83 141 -142 0
-83 -141 142 0
83 141 -143 0
83 -141 143 0
-83 141 143 0
-83 -141 -143 0
140 142 -144 0
140 -142 144 0
-140 142 144 0
-140 -142 -144 0
5 15 -145 0
5 -15 -145 0
-5 15 -145 0
-5 -15 145 0
94 145 -146 0
94 -145 -146 0
-94 145 -146 0
-94 -145 146 0
94 145 -147 0
94 -145 147 0
-94 145 147 0
-94 -145 -147 0
89 147 -148 0
89 -147 -148 0
-89 147 -148 0
-89 -147 148 0
89 147 -149 0
89 -147 149 0
-89 147 149 0
-89 -147 -149 0
146 148 -150 0
146 -148 150 0
-146 148 150 0
-146 -148 -150 0
6 15 -151 0
6 -15 -151 0
-6 15 -151 0
-6 -15 151 0
100 151 -152 0
100 -151 -152 0
-100 151 -152 0
-100 -151 152 0
100 151 -153 0
100 -151 153 0
-100 151 153 0
-100 -151 -153 0
95 153 -154 0
95 -153 -154 0
-95 153 -154 0
-95 -153 154 0
95 153 -155 0
95 -153 155 0
-95 153 155 0
-95 -153 -155 0
152 154 -156 0
152 -154 156 0
-152 154 156 0
-152 -154 -156 0
7 15 -157 0
7 -15 -157 0
-7 15 -157 0
-7 -15 157 0
106 157 -158 0
106 -157 -158 0
-106 157 -158 0
-106 -157 158 0
106 157 -159 0
106 -157 159 0
-106 157 159 0
-106 -157 -159 0
101 159 -160 0
101 -159 -160 0
-101 159 -160 0
-101 -159 160 0
101 159 -161 0
101 -159 161 0
-101 159 161 0
-101 -159 -161 0
158 160 -162 0
158 -160 162 0
-158 160 162 0
-158 -160 -162 0
8 15 -163 0
8 -15 -163 0
-8 15 -163 0
-8 -15 163 0
112 163 -164 0
112 -163 -164 0
-112 163 -164 0
-112 -163 164 0
112 163 -165 0
112 -163 165 0
-112 163 165 0
-112 -163 -165 0
107 165 -166 0
107 -165 -166 0
-107 165 -166 0
-107 -165 166 0
107 165 -167 0
107 -165 167 0
-107 165 167 0
-107 -165 -167 0
164 166 -168 0
164 -166 168 0
-164 166 168 0
-164 -166 -168 0
9 15 -169 0
9 -15 -169 0
-9 15 -169 0
-9 -15 169 0
118 169 -170 0
118 -169 -170 0
-118 169 -170 0
-118 -169 170 0
118 169 -171 0
118 -169 171 0
-118 169 171 0
-118 -169 -171 0
113 171 -172 0
113 -171 -172 0
-113 171 -172 0
-113 -171 172 0
113 171 -173 0
113 -171 173 0
-113 171 173 0
-113 -171 -173 0
170 172 -174 0
170 -172 174 0
-170 172 174 0
-170 -172 -174 0
10 15 -175 0
10 -15 -175 0
-10 15 -175 0
-10 -15 175 0
120 175 -176 0
120 -175 -176 0
-120 175 -176 0
-120 -175 176 0
120 175 -177 0
120 -175 177 0
-120 175 177 0
-120 -175 -177 0
119 177 -178 0
119 -177 -178 0
-119 177 -178 0
-119 -177 178 0
119 177 -179 0
119 -177 179 0
-119 177 179 0
-119 -177 -179 0
176 178 -180 0
176 -178 180 0
-176 178 180 0
-176 -178 -180 0
11 15 -181 0
11 -15 -181 0
-11 15 -181 0
-11 -15 181 0
1 16 -182 0
1 -16 -182 0
-1 16 -182 0
-1 -16 182 0
131 182 -183 0
131 -182 -183 0
-131 182 -183 0
-131 -182 183 0
131 182 -184 0
131 -182 184 0
-131 182 184 0
-131 -182 -184 0
126 184 -185 0
126 -184 -185 0
-126 184 -185 0
-126 -184 185 0
126 184 -186 0
126 -184 186 0
-126 184 186 0
-126 -184 -186 0
183 185 -187 0
183 -185 187 0
-183 185 187 0
-183 -185 -187 0
2 16 -188 0
2 -16 -188 0
-2 16 -188 0
-2 -16 188 0
137 188 -189 0
137 -188 -189 0
-137 188 -189 0
-137 -188 189 0
137 188 -190 0
137 -188 190 0
-137 188 190 0
-137 -188 -190 0
132 190 -191 0
132 -190 -191 0
-132 190 -191 0
-132 -190 191 0
132 190 -192 0
132 -190 192 0
-132 190 192 0
-132 -190 -192 0
189 191 -193 0
189 -191 193 0
-189 191 193 0
-189 -191 -193 0
3 16 -194 0
3 -16 -194 0
-3 16 -194 0
-3 -16 194 0
143 194 -195 0
143 -194 -195 0
-143 194 -195 0
-143 -194 195 0
143 194 -196 0
143 -194 196 0
-143 194 196 0
-143 -194 -196 0
138 196 -197 0
138 -196 -197 0
-138 196 -197 0
-138 -196 197 0
138 196 -198 0
138 -196 198 0
-138 196 198 0
-138 -196 -198 0
195 197 -199 0
195 -197 199 0
-195 197 199 0
-195 -197 -199 0
4 16 -200 0
4 -16 -200 0
-4 16 -200 0
-4 -16 200 0
149 200 -201 0
149 -200 -201 0
-149 200 -201 0
-149 -200 201 0
149 200 -202 0
149 -200 202 0
-149 200 202 0
-149 -200 -202 0
144 202 -203 0
144 -202 -203 0
-144 202 -203 0
-144 -202 203 0
144 202 -204 0
144 -202 204 0
-144 202 204 0
-144 -202 -204 0
201 203 -205 0
201 -203 205 0
-201 203 205 0
-201 -203 -205 0
5 16 -206 0
5 -16 -206 0
-5 16 -206 0
-5 -16 206 0
155 206 -207 0
155 -206 -207 0
-155 206 -207 0
-155 -206 207 0
155 206 -208 0
155 -206 208 0
-155 206 208 0
-155 -206 -208 0
150 208 -209 0
150 -208 -209 0
-150 208 -209 0
-150 -208 209 0
150 208 -210 0
150 -208 210 0
-150 208 210 0
-150 -208 -210 0
207 209 -211 0
207 -209 211 0
-207 209 211 0
-207 -209 -211 0
6 16 -212 0
6 -16 -212 0
-6 16 -212 0
-6 -16 212 0
161 212 -213 0
161 -212 -213 0
-161 212 -213 0
-161 -212 213 0
161 212 -214 0
161 -212 214 0
-161 212 214 0
-161 -212 -214 0
156 214 -215 0
156 -214 -215 0
-156 214 -215 0
-156 -214 215 0
156 214 -216 0
156 -214 216 0
-156 214 216 0
-156 -214 -216 0
213 215 -217 0
213 -215 217 0
-213 215 217 0
-213 -215 -217 0
7 16 -218 0
7 -16 -218 0
-7 16 -218 0
-7 -16 218 0
167 218 -219 0
167 -218 -219 0
-167 218 -219 0
-167 -218 219 0
167 218 -220 0
167 -218 220 0
-167 218 220 0
-167 -218 -220 0
162 220 -221 0
162 -220 -221 0
-162 220 -221 0
-162 -220 221 0
162 220 -222 0
162 -220 222 0
-162 220 222 0
-162 -220 -222 0
219 221 -223 0
219 -221 223 0
-219 221 223 0
-219 -221 -223 0
8 16 -224 0
8 -16 -224 0
-8 16 -224 0
-8 -16 224 0
173 224 -225 0
173 -224 -225 0
-173 224 -225 0
-173 -224 225 0
173 224 -226 0
173 -224 226 0
-173 224 226 0
-173 -224 -226 0
168 226 -227 0
168 -226 -227 0
-168 226 -227 0
-168 -226 227 0
168 226 -228 0
168 -226 228 0
-168 226 228 0
-168 -226 -228 0
225 227 -229 0
225 -227 229 0
-225 227 229 0
-225 -227 -229 0
9 16 -230 0
9 -16 -230 0
-9 16 -230 0
-9 -16 230 0
179 230 -231 0
179 -230 -231 0
-179 230 -231 0
-179 -230 231 0
179 230 -232 0
179 -230 232 0
-179 230 232 0
-179 -230 -232 0
174 232 -233 0
174 -232 -233 0
-174 232 -233 0
-174 -232 233 0
174 232 -234 0
174 -232 234 0
-174 232 234 0
-174 -232 -234 0
231 233 -235 0
231 -233 235 0
-231 233 235 0
-231 -233 -235 0
10 16 -236 0
10 -16 -236 0
-10 16 -236 0
-10 -16 236 0
181 236 -237 0
181 -236 -237 0
-181 236 -237 0
-181 -236 237 0
181 236 -238 0
181 -236 238 0
-181 236 238 0
-181 -236 -238 0
180 238 -239 0
180 -238 -239 0
-180 238 -239 0
-180 -238 239 0
180 238 -240 0
180 -238 240 0
-180 238 240 0
-180 -238 -240 0
237 239 -241 0
237 -239 241 0
-237 239 241 0
-237 -239 -241 0
11 16 -242 0
11 -16 -242 0
-11 16 -242 0
-11 -16 242 0
1 17 -243 0
1 -17 -243 0
-1 17 -243 0
-1 -17 243 0
192 243 -244 0
192 -243 -244 0
-192 243 -244 0
-192 -243 244 0
192 243 -245 0
192 -243 245 0
-192 243 245 0
-192 -243 -245 0
187 245 -246 0
187 -245 -246 0
-187 245 -246 0
-187 -245 246 0
187 245 -247 0
187 -245 247 0
-187 245 247 0
-187 -245 -247 0
244 246 -248 0
244 -246 248 0
-244 246 248 0
-244 -246 -248 0
2 17 -249 0
2 -17 -249 0
-2 17 -249 0
-2 -17 249 0
198 249 -250 0
198 -249 -250 0
-198 249 -250 0
-198 -249 250 0
198 249 -251 0
198 -249 251 0
-198 249 251 0
-198 -249 -251 0
193 251 -252 0
193 -251 -252 0
-193 251 -252 0
-193 -251 252 0
193 251 -253 0
193 -251 253 0
-193 251 253 0
-193 -251 -253 0
250 252 -254 0
250 -252 254 0
-250 252 254 0
-250 -252 -254 0
3 17 -255 0
3 -17 -255 0
-3 17 -255 0
-3 -17 255 0
204 255 -256 0
204 -255 -256 0
-204 255 -256 0
-204 -255 256 0
204 255 -257 0
204 -255 257 0
-204 255 257 0
-204 -255 -257 0
199 257 -258 0
199 -257 -258 0
-199 257 -258 0
-199 -257 258 0
199 257 -259 0
199 -257 259 0
-199 257 259 0
-199 -257 -259 0
256 258 -260 0
256 -258 260 0
-256 258 260 0
-256 -258 -260 0
4 17 -261 0
4 -17 -261 0
-4 17 -261 0
-4 -17 261 0
210 261 -262 0
210 -261 -262 0
-210 261 -262 0
-210 -261 262 0
210 261 -263 0
210 -261 263 0
-210 261 263 0
-210 -261 -263 0
205 263 -264 0
205 -263 -264 0
-205 263 -264 0
-205 -263 264 0
205 263 -265 0
205 -263 265 0
-205 263 265 0
-205 -263 -265 0
262 264 -266 0
262 -264 266 0
-262 264 266 0
-262 -264 -266 0
5 17 -267 0
5 -17 -267 0
-5 17 -267 0
-5 -17 267 0
216 267 -268 0
216 -267 -268 0
-216 267 -268 0
-216 -267 268 0
216 267 -269 0
216 -267 269 0
-216 267 269 0
-216 -267 -269 0
211 269 -270 0
211 -269 -270 0
-211 269 -270 0
-211 -269 270 0
211 269 -271 0
211 -269 271 0
-211 269 271 0
-211 -269 -271 0
268 270 -272 0
268 -270 272 0
-268 270 272 0
-268 -270 -272 0
6 17 -273 0
6 -17 -273 0
-6 17 -273 0
-6 -17 273 0
222 273 -274 0
222 -273 -274 0
-222 273 -274 0
-222 -273 274 0
222 273 -275 0
222 -273 275 0
-222 273 275 0
-222 -273 -275 0
217 275 -276 0
217 -275 -276 0
-217 275 -276 0
-217 -275 276 0
217 275 -277 0
217 -275 277 0
-217 275 277 0
-217 -275 -277 0
274 276 -278 0
274 -276 278 0
-274 276 278 0
-274 -276 -278 0
7 17 -279 0
7 -17 -279 0
-7 17 -279 0
-7 -17 279 0
228 279 -280 0
228 -279 -280 0
-228 279 -280 0
-228 -279 280 0
228 279 -281 0
228 -279 281 0
-228 279 281 0
-228 -279 -281 0
223 281 -282 0
223 -281 -282 0
-223 281 -282 0
-223 -281 282 0
223 281 -283 0
223 -281 283 0
-223 281 283 0
-223 -281 -283 0
280 282 -284 0
280 -282 284 0
-280 282 284 0
-280 -282 -284 0
8 17 -285 0
8 -17 -285 0
-8 17 -285 0
-8 -17 285 0
234 285 -286 0
234 -285 -286 0
-234 285 -286 0
-234 -285 286 0
234 285 -287 0
234 -285 287 0
-234 285 287 0
-234 -285 -287 0
229 287 -288 0
229 -287 -288 0
-229 287 -288 0
-229 -287 288 0
229 287 -289 0
229 -287 289 0
-229 287 289 0
-229 -287 -289 0
286 288 -290 0
286 -288 290 0
-286 288 290 0
-286 -288 -290 0
9 17 -291 0
9 -17 -291 0
-9 17 -291 0
-9 -17 291 0
240 291 -292 0
240 -291 -292 0
-240 291 -292 0
-240 -291 292 0
240 291 -293 0
240 -291 293 0
-240 291 293 0
-240 -291 -293 0
235 293 -294 0
235 -293 -294 0
-235 293 -294 0
-235 -293 294 0
235 293 -295 0
235 -293 295 0
-235 293 295 0
-235 -293 -295 0
292 294 -296 0
292 -294 296 0
-292 294 296 0
-292 -294 -296 0
10 17 -297 0
10 -17 -297 0
-10 17 -297 0
-10 -17 297 0
242 297 -298 0
242 -297 -298 0
-242 297 -298 0
-242 -297 298 0
242 297 -299 0
242 -297 299 0
-242 297 299 0
-242 -297 -299 0
241 299 -300 0
241 -299 -300 0
-241 299 -300 0
-241 -299 300 0
241 299 -301 0
241 -299 301 0
-241 299 301 0
-241 -299 -301 0
298 300 -302 0
298 -300 302 0
-298 300 302 0
-298 -300 -302 0
11 17 -303 0
11 -17 -303 0
-11 17 -303 0
-11 -17 303 0
248 253 -304 0
248 -253 -304 0
-248 253 -304 0
-248 -253 304 0
248 253 -305 0
248 -253 305 0
-248 253 305 0
-248 -253 -305 0
254 259 -306 0
254 -259 -306 0
-254 259 -306 0
-254 -259 306 0
254 259 -307 0
254 -259 307 0
-254 259 307 0
-254 -259 -307 0
304 307 -308 0
304 -307 -308 0
-304 307 -308 0
-304 -307 308 0
304 307 -309 0
304 -307 309 0
-304 307 309 0
-304 -307 -309 0
306 308 -310 0
306 -308 310 0
-306 308 310 0
-306 -308 -310 0
260 265 -311 0
260 -265 -311 0
-260 265 -311 0
-260 -265 311 0
260 265 -312 0
260 -265 312 0
-260 265 312 0
-260 -265 -312 0
310 312 -313 0
310 -312 -313 0
-310 312 -313 0
-310 -312 313 0
310 312 -314 0
310 -312 314 0
-310 312 314 0
-310 -312 -314 0
311 313 -315 0
311 -313 315 0
-311 313 315 0
-311 -313 -315 0
266 271 -316 0
266 -271 -316 0
-266 271 -316 0
-266 -271 316 0
266 271 -317 0
266 -271 317 0
-266 271 317 0
-266 -271 -317 0
315 317 -318 0
315 -317 -318 0
-315 317 -318 0
-315 -317 318 0
315 317 -319 0
315 -317 319 0
-315 317 319 0
-315 -317 -319 0
316 318 -320 0
316 -318 320 0
-316 318 320 0
-316 -318 -320 0
272 277 -321 0
272 -277 -321 0
-272 277 -321 0
-272 -277 321 0
272 277 -322 0
272 -277 322 0
-272 277 322 0
-272 -277 -322 0
320 322 -323 0
320 -322 -323 0
-320 322 -323 0
-320 -322 323 0
320 322 -324 0
320 -322 324 0
-320 322 324 0
-320 -322 -324 0
321 323 -325 0
321 -323 325 0
-321 323 325 0
-321 -323 -325 0
278 283 -326 0
278 -283 -326 0
-278 283 -326 0
-278 -283 326 0
278 283 -327 0
278 -283 327 0
-278 283 327 0
-278 -283 -327 0
325 327 -328 0
325 -327 -328 0
-325 327 -328 0
-325 -327 328 0
325 327 -329 0
325 -327 329 0
-325 327 329 0
-325 -327 -329 0
326 328 -330 0
326 -328 330 0
-326 328 330 0
-326 -328 -330 0
284 289 -331 0
284 -289 -331 0
-284 289 -331 0
-284 -289 331 0
284 289 -332 0
284 -289 332 0
-284 289 332 0
-284 -289 -332 0
330 332 -333 0
330 -332 -333 0
-330 332 -333 0
-330 -332 333 0
330 332 -334 0
330 -332 334 0
-330 332 334 0
-330 -332 -334 0
331 333 -335 0
331 -333 335 0
-331 333 335 0
-331 -333 -335 0
290 295 -336 0
290 -295 -336 0
-290 295 -336 0
-290 -295 336 0
290 295 -337 0
290 -295 337 0
-290 295 337 0
-290 -295 -337 0
335 337 -338 0
335 -337 -338 0
-335 337 -338 0
-335 -337 338 0
335 337 -339 0
335 -337 339 0
-335 337 339 0
-335 -337 -339 0
336 338 -340 0
336 -338 340 0
-336 338 340 0
-336 -338 -340 0
296 301 -341 0
296 -301 -341 0
-296 301 -341 0
-296 -301 341 0
296 301 -342 0
296 -301 342 0
-296 301 342 0
-296 -301 -342 0
340 342 -343 0
340 -342 -343 0
-340 342 -343 0
-340 -342 343 0
340 342 -344 0
340 -342 344 0
-340 342 344 0
-340 -342 -344 0
341 343 -345 0
341 -343 345 0
-341 343 345 0
-341 -343 -345 0
302 303 -346 0
302 -303 -346 0
-302 303 -346 0
-302 -303 346 0
302 303 -347 0
302 -303 347 0
-302 303 347 0
-302 -303 -347 0
345 347 -348 0
345 -347 -348 0
-345 347 -348 0
-345 -347 348 0
345 347 -349 0
345 -347 349 0
-345 347 349 0
-345 -347 -349 0
346 348 -350 0
346 -348 350 0
-346 348 350 0
-346 -348 -350 0
18 0
-31 0
-64 0
125 0
186 0
247 0
-305 0
309 0
314 0
319 0
-324 0
329 0
-334 0
-339 0
-344 0
-349 0
-350 0